c This file is generated by v2cnfMtr
c Generated on Mon Nov  9 17:04:38 2015
p cnf 571 1488
-1 -3 -19 0
1 19 0
3 19 0
-3 -4 -16 0
3 16 0
4 16 0
-2 -35 -18 0
2 18 0
35 18 0
-5 -35 -17 0
5 17 0
35 17 0
-22 -61 -14 0
22 14 0
61 14 0
-17 -17 -15 0
17 15 0
17 15 0
6 20 0
-6 -20 0
7 21 0
-7 -21 0
-1 -20 23 0
1 -23 0
20 -23 0
-19 -6 24 0
19 -24 0
6 -24 0
-4 -20 25 0
4 -25 0
20 -25 0
-19 -6 26 0
19 -26 0
6 -26 0
-23 -21 27 0
23 -27 0
21 -27 0
-24 -7 28 0
24 -28 0
7 -28 0
-25 -21 29 0
25 -29 0
21 -29 0
-26 -7 30 0
26 -30 0
7 -30 0
27 28 -31 0
-27 31 0
-28 31 0
29 31 -32 0
-29 32 0
-31 32 0
32 30 -22 0
-32 22 0
-30 22 0
8 33 0
-8 -33 0
9 34 0
-9 -34 0
-1 -33 36 0
1 -36 0
33 -36 0
-16 -8 37 0
16 -37 0
8 -37 0
-4 -33 38 0
4 -38 0
33 -38 0
-16 -8 39 0
16 -39 0
8 -39 0
-36 -34 40 0
36 -40 0
34 -40 0
-37 -9 41 0
37 -41 0
9 -41 0
-38 -34 42 0
38 -42 0
34 -42 0
-39 -9 43 0
39 -43 0
9 -43 0
40 41 -44 0
-40 44 0
-41 44 0
42 44 -45 0
-42 45 0
-44 45 0
45 43 -35 0
-45 35 0
-43 35 0
10 46 0
-10 -46 0
11 47 0
-11 -47 0
-1 -46 49 0
1 -49 0
46 -49 0
-16 -10 50 0
16 -50 0
10 -50 0
-4 -46 51 0
4 -51 0
46 -51 0
-16 -10 52 0
16 -52 0
10 -52 0
-49 -47 53 0
49 -53 0
47 -53 0
-50 -11 54 0
50 -54 0
11 -54 0
-51 -47 55 0
51 -55 0
47 -55 0
-52 -11 56 0
52 -56 0
11 -56 0
53 54 -57 0
-53 57 0
-54 57 0
55 57 -58 0
-55 58 0
-57 58 0
58 56 -48 0
-58 48 0
-56 48 0
12 59 0
-12 -59 0
13 60 0
-13 -60 0
-1 -59 62 0
1 -62 0
59 -62 0
-18 -12 63 0
18 -63 0
12 -63 0
-4 -59 64 0
4 -64 0
59 -64 0
-18 -12 65 0
18 -65 0
12 -65 0
-62 -60 66 0
62 -66 0
60 -66 0
-63 -13 67 0
63 -67 0
13 -67 0
-64 -60 68 0
64 -68 0
60 -68 0
-65 -13 69 0
65 -69 0
13 -69 0
66 67 -70 0
-66 70 0
-67 70 0
68 70 -71 0
-68 71 0
-70 71 0
71 69 -61 0
-71 61 0
-69 61 0
c The second circuit:
-72 -74 -90 0
72 90 0
74 90 0
-74 -75 -87 0
74 87 0
75 87 0
-73 -106 -89 0
73 89 0
106 89 0
-76 -106 -88 0
76 88 0
106 88 0
-93 -132 -85 0
93 85 0
132 85 0
-88 -88 -86 0
88 86 0
88 86 0
77 91 0
-77 -91 0
78 92 0
-78 -92 0
-72 -91 94 0
72 -94 0
91 -94 0
-90 -77 95 0
90 -95 0
77 -95 0
-75 -91 96 0
75 -96 0
91 -96 0
-90 -77 97 0
90 -97 0
77 -97 0
-94 -92 98 0
94 -98 0
92 -98 0
-95 -78 99 0
95 -99 0
78 -99 0
-96 -92 100 0
96 -100 0
92 -100 0
-97 -78 101 0
97 -101 0
78 -101 0
98 99 -102 0
-98 102 0
-99 102 0
100 102 -103 0
-100 103 0
-102 103 0
103 101 -93 0
-103 93 0
-101 93 0
79 104 0
-79 -104 0
80 105 0
-80 -105 0
-72 -104 107 0
72 -107 0
104 -107 0
-87 -79 108 0
87 -108 0
79 -108 0
-75 -104 109 0
75 -109 0
104 -109 0
-87 -79 110 0
87 -110 0
79 -110 0
-107 -105 111 0
107 -111 0
105 -111 0
-108 -80 112 0
108 -112 0
80 -112 0
-109 -105 113 0
109 -113 0
105 -113 0
-110 -80 114 0
110 -114 0
80 -114 0
111 112 -115 0
-111 115 0
-112 115 0
113 115 -116 0
-113 116 0
-115 116 0
116 114 -106 0
-116 106 0
-114 106 0
81 117 0
-81 -117 0
82 118 0
-82 -118 0
-72 -117 120 0
72 -120 0
117 -120 0
-87 -81 121 0
87 -121 0
81 -121 0
-75 -117 122 0
75 -122 0
117 -122 0
-87 -81 123 0
87 -123 0
81 -123 0
-120 -118 124 0
120 -124 0
118 -124 0
-121 -82 125 0
121 -125 0
82 -125 0
-122 -118 126 0
122 -126 0
118 -126 0
-123 -82 127 0
123 -127 0
82 -127 0
124 125 -128 0
-124 128 0
-125 128 0
126 128 -129 0
-126 129 0
-128 129 0
129 127 -119 0
-129 119 0
-127 119 0
83 130 0
-83 -130 0
84 131 0
-84 -131 0
-72 -130 133 0
72 -133 0
130 -133 0
-89 -83 134 0
89 -134 0
83 -134 0
-75 -130 135 0
75 -135 0
130 -135 0
-89 -83 136 0
89 -136 0
83 -136 0
-133 -131 137 0
133 -137 0
131 -137 0
-134 -84 138 0
134 -138 0
84 -138 0
-135 -131 139 0
135 -139 0
131 -139 0
-136 -84 140 0
136 -140 0
84 -140 0
137 138 -141 0
-137 141 0
-138 141 0
139 141 -142 0
-139 142 0
-141 142 0
142 140 -132 0
-142 132 0
-140 132 0
c Force PIs of 2 ckts to be the same:
1 -72 0
-1 72 0
2 -73 0
-2 73 0
3 -74 0
-3 74 0
4 -75 0
-4 75 0
5 -76 0
-5 76 0
c XOR outputs of 2 ckts:
-14 -85 -143 0
14 85 -143 0
14 -85 143 0
-14 85 143 0
-15 -86 -144 0
15 86 -144 0
15 -86 144 0
-15 86 144 0
c The last OR gate of the miter:
143 144 -145 0
-143 145 0
-144 145 0
145 0
c New ckt:
-146 -148 -164 0
146 164 0
148 164 0
-148 -149 -161 0
148 161 0
149 161 0
-147 -180 -163 0
147 163 0
180 163 0
-150 -180 -162 0
150 162 0
180 162 0
-167 -206 -159 0
167 159 0
206 159 0
-162 -162 -160 0
162 160 0
162 160 0
151 165 0
-151 -165 0
152 166 0
-152 -166 0
-146 -165 168 0
146 -168 0
165 -168 0
-164 -151 169 0
164 -169 0
151 -169 0
-149 -165 170 0
149 -170 0
165 -170 0
-164 -151 171 0
164 -171 0
151 -171 0
-168 -166 172 0
168 -172 0
166 -172 0
-169 -152 173 0
169 -173 0
152 -173 0
-170 -166 174 0
170 -174 0
166 -174 0
-171 -152 175 0
171 -175 0
152 -175 0
172 173 -176 0
-172 176 0
-173 176 0
174 176 -177 0
-174 177 0
-176 177 0
177 175 -167 0
-177 167 0
-175 167 0
153 178 0
-153 -178 0
154 179 0
-154 -179 0
-146 -178 181 0
146 -181 0
178 -181 0
-161 -153 182 0
161 -182 0
153 -182 0
-149 -178 183 0
149 -183 0
178 -183 0
-161 -153 184 0
161 -184 0
153 -184 0
-181 -179 185 0
181 -185 0
179 -185 0
-182 -154 186 0
182 -186 0
154 -186 0
-183 -179 187 0
183 -187 0
179 -187 0
-184 -154 188 0
184 -188 0
154 -188 0
185 186 -189 0
-185 189 0
-186 189 0
187 189 -190 0
-187 190 0
-189 190 0
190 188 -180 0
-190 180 0
-188 180 0
155 191 0
-155 -191 0
156 192 0
-156 -192 0
-146 -191 194 0
146 -194 0
191 -194 0
-161 -155 195 0
161 -195 0
155 -195 0
-149 -191 196 0
149 -196 0
191 -196 0
-161 -155 197 0
161 -197 0
155 -197 0
-194 -192 198 0
194 -198 0
192 -198 0
-195 -156 199 0
195 -199 0
156 -199 0
-196 -192 200 0
196 -200 0
192 -200 0
-197 -156 201 0
197 -201 0
156 -201 0
198 199 -202 0
-198 202 0
-199 202 0
200 202 -203 0
-200 203 0
-202 203 0
203 201 -193 0
-203 193 0
-201 193 0
157 204 0
-157 -204 0
158 205 0
-158 -205 0
-146 -204 207 0
146 -207 0
204 -207 0
-163 -157 208 0
163 -208 0
157 -208 0
-149 -204 209 0
149 -209 0
204 -209 0
-163 -157 210 0
163 -210 0
157 -210 0
-207 -205 211 0
207 -211 0
205 -211 0
-208 -158 212 0
208 -212 0
158 -212 0
-209 -205 213 0
209 -213 0
205 -213 0
-210 -158 214 0
210 -214 0
158 -214 0
211 212 -215 0
-211 215 0
-212 215 0
213 215 -216 0
-213 216 0
-215 216 0
216 214 -206 0
-216 206 0
-214 206 0
6 -151 0
-6 151 0
7 -152 0
-7 152 0
8 -153 0
-8 153 0
9 -154 0
-9 154 0
10 -155 0
-10 155 0
11 -156 0
-11 156 0
12 -157 0
-12 157 0
13 -158 0
-13 158 0
146 0
147 0
-148 0
-149 0
150 0
159 0
160 0
c New ckt:
-217 -219 -235 0
217 235 0
219 235 0
-219 -220 -232 0
219 232 0
220 232 0
-218 -251 -234 0
218 234 0
251 234 0
-221 -251 -233 0
221 233 0
251 233 0
-238 -277 -230 0
238 230 0
277 230 0
-233 -233 -231 0
233 231 0
233 231 0
222 236 0
-222 -236 0
223 237 0
-223 -237 0
-217 -236 239 0
217 -239 0
236 -239 0
-235 -222 240 0
235 -240 0
222 -240 0
-220 -236 241 0
220 -241 0
236 -241 0
-235 -222 242 0
235 -242 0
222 -242 0
-239 -237 243 0
239 -243 0
237 -243 0
-240 -223 244 0
240 -244 0
223 -244 0
-241 -237 245 0
241 -245 0
237 -245 0
-242 -223 246 0
242 -246 0
223 -246 0
243 244 -247 0
-243 247 0
-244 247 0
245 247 -248 0
-245 248 0
-247 248 0
248 246 -238 0
-248 238 0
-246 238 0
224 249 0
-224 -249 0
225 250 0
-225 -250 0
-217 -249 252 0
217 -252 0
249 -252 0
-232 -224 253 0
232 -253 0
224 -253 0
-220 -249 254 0
220 -254 0
249 -254 0
-232 -224 255 0
232 -255 0
224 -255 0
-252 -250 256 0
252 -256 0
250 -256 0
-253 -225 257 0
253 -257 0
225 -257 0
-254 -250 258 0
254 -258 0
250 -258 0
-255 -225 259 0
255 -259 0
225 -259 0
256 257 -260 0
-256 260 0
-257 260 0
258 260 -261 0
-258 261 0
-260 261 0
261 259 -251 0
-261 251 0
-259 251 0
226 262 0
-226 -262 0
227 263 0
-227 -263 0
-217 -262 265 0
217 -265 0
262 -265 0
-232 -226 266 0
232 -266 0
226 -266 0
-220 -262 267 0
220 -267 0
262 -267 0
-232 -226 268 0
232 -268 0
226 -268 0
-265 -263 269 0
265 -269 0
263 -269 0
-266 -227 270 0
266 -270 0
227 -270 0
-267 -263 271 0
267 -271 0
263 -271 0
-268 -227 272 0
268 -272 0
227 -272 0
269 270 -273 0
-269 273 0
-270 273 0
271 273 -274 0
-271 274 0
-273 274 0
274 272 -264 0
-274 264 0
-272 264 0
228 275 0
-228 -275 0
229 276 0
-229 -276 0
-217 -275 278 0
217 -278 0
275 -278 0
-234 -228 279 0
234 -279 0
228 -279 0
-220 -275 280 0
220 -280 0
275 -280 0
-234 -228 281 0
234 -281 0
228 -281 0
-278 -276 282 0
278 -282 0
276 -282 0
-279 -229 283 0
279 -283 0
229 -283 0
-280 -276 284 0
280 -284 0
276 -284 0
-281 -229 285 0
281 -285 0
229 -285 0
282 283 -286 0
-282 286 0
-283 286 0
284 286 -287 0
-284 287 0
-286 287 0
287 285 -277 0
-287 277 0
-285 277 0
77 -222 0
-77 222 0
78 -223 0
-78 223 0
79 -224 0
-79 224 0
80 -225 0
-80 225 0
81 -226 0
-81 226 0
82 -227 0
-82 227 0
83 -228 0
-83 228 0
84 -229 0
-84 229 0
217 0
218 0
-219 0
-220 0
221 0
230 0
231 0
c New ckt:
-288 -290 -306 0
288 306 0
290 306 0
-290 -291 -303 0
290 303 0
291 303 0
-289 -322 -305 0
289 305 0
322 305 0
-292 -322 -304 0
292 304 0
322 304 0
-309 -348 -301 0
309 301 0
348 301 0
-304 -304 -302 0
304 302 0
304 302 0
293 307 0
-293 -307 0
294 308 0
-294 -308 0
-288 -307 310 0
288 -310 0
307 -310 0
-306 -293 311 0
306 -311 0
293 -311 0
-291 -307 312 0
291 -312 0
307 -312 0
-306 -293 313 0
306 -313 0
293 -313 0
-310 -308 314 0
310 -314 0
308 -314 0
-311 -294 315 0
311 -315 0
294 -315 0
-312 -308 316 0
312 -316 0
308 -316 0
-313 -294 317 0
313 -317 0
294 -317 0
314 315 -318 0
-314 318 0
-315 318 0
316 318 -319 0
-316 319 0
-318 319 0
319 317 -309 0
-319 309 0
-317 309 0
295 320 0
-295 -320 0
296 321 0
-296 -321 0
-288 -320 323 0
288 -323 0
320 -323 0
-303 -295 324 0
303 -324 0
295 -324 0
-291 -320 325 0
291 -325 0
320 -325 0
-303 -295 326 0
303 -326 0
295 -326 0
-323 -321 327 0
323 -327 0
321 -327 0
-324 -296 328 0
324 -328 0
296 -328 0
-325 -321 329 0
325 -329 0
321 -329 0
-326 -296 330 0
326 -330 0
296 -330 0
327 328 -331 0
-327 331 0
-328 331 0
329 331 -332 0
-329 332 0
-331 332 0
332 330 -322 0
-332 322 0
-330 322 0
297 333 0
-297 -333 0
298 334 0
-298 -334 0
-288 -333 336 0
288 -336 0
333 -336 0
-303 -297 337 0
303 -337 0
297 -337 0
-291 -333 338 0
291 -338 0
333 -338 0
-303 -297 339 0
303 -339 0
297 -339 0
-336 -334 340 0
336 -340 0
334 -340 0
-337 -298 341 0
337 -341 0
298 -341 0
-338 -334 342 0
338 -342 0
334 -342 0
-339 -298 343 0
339 -343 0
298 -343 0
340 341 -344 0
-340 344 0
-341 344 0
342 344 -345 0
-342 345 0
-344 345 0
345 343 -335 0
-345 335 0
-343 335 0
299 346 0
-299 -346 0
300 347 0
-300 -347 0
-288 -346 349 0
288 -349 0
346 -349 0
-305 -299 350 0
305 -350 0
299 -350 0
-291 -346 351 0
291 -351 0
346 -351 0
-305 -299 352 0
305 -352 0
299 -352 0
-349 -347 353 0
349 -353 0
347 -353 0
-350 -300 354 0
350 -354 0
300 -354 0
-351 -347 355 0
351 -355 0
347 -355 0
-352 -300 356 0
352 -356 0
300 -356 0
353 354 -357 0
-353 357 0
-354 357 0
355 357 -358 0
-355 358 0
-357 358 0
358 356 -348 0
-358 348 0
-356 348 0
6 -293 0
-6 293 0
7 -294 0
-7 294 0
8 -295 0
-8 295 0
9 -296 0
-9 296 0
10 -297 0
-10 297 0
11 -298 0
-11 298 0
12 -299 0
-12 299 0
13 -300 0
-13 300 0
-288 0
-289 0
290 0
291 0
292 0
-301 0
-302 0
c New ckt:
-359 -361 -377 0
359 377 0
361 377 0
-361 -362 -374 0
361 374 0
362 374 0
-360 -393 -376 0
360 376 0
393 376 0
-363 -393 -375 0
363 375 0
393 375 0
-380 -419 -372 0
380 372 0
419 372 0
-375 -375 -373 0
375 373 0
375 373 0
364 378 0
-364 -378 0
365 379 0
-365 -379 0
-359 -378 381 0
359 -381 0
378 -381 0
-377 -364 382 0
377 -382 0
364 -382 0
-362 -378 383 0
362 -383 0
378 -383 0
-377 -364 384 0
377 -384 0
364 -384 0
-381 -379 385 0
381 -385 0
379 -385 0
-382 -365 386 0
382 -386 0
365 -386 0
-383 -379 387 0
383 -387 0
379 -387 0
-384 -365 388 0
384 -388 0
365 -388 0
385 386 -389 0
-385 389 0
-386 389 0
387 389 -390 0
-387 390 0
-389 390 0
390 388 -380 0
-390 380 0
-388 380 0
366 391 0
-366 -391 0
367 392 0
-367 -392 0
-359 -391 394 0
359 -394 0
391 -394 0
-374 -366 395 0
374 -395 0
366 -395 0
-362 -391 396 0
362 -396 0
391 -396 0
-374 -366 397 0
374 -397 0
366 -397 0
-394 -392 398 0
394 -398 0
392 -398 0
-395 -367 399 0
395 -399 0
367 -399 0
-396 -392 400 0
396 -400 0
392 -400 0
-397 -367 401 0
397 -401 0
367 -401 0
398 399 -402 0
-398 402 0
-399 402 0
400 402 -403 0
-400 403 0
-402 403 0
403 401 -393 0
-403 393 0
-401 393 0
368 404 0
-368 -404 0
369 405 0
-369 -405 0
-359 -404 407 0
359 -407 0
404 -407 0
-374 -368 408 0
374 -408 0
368 -408 0
-362 -404 409 0
362 -409 0
404 -409 0
-374 -368 410 0
374 -410 0
368 -410 0
-407 -405 411 0
407 -411 0
405 -411 0
-408 -369 412 0
408 -412 0
369 -412 0
-409 -405 413 0
409 -413 0
405 -413 0
-410 -369 414 0
410 -414 0
369 -414 0
411 412 -415 0
-411 415 0
-412 415 0
413 415 -416 0
-413 416 0
-415 416 0
416 414 -406 0
-416 406 0
-414 406 0
370 417 0
-370 -417 0
371 418 0
-371 -418 0
-359 -417 420 0
359 -420 0
417 -420 0
-376 -370 421 0
376 -421 0
370 -421 0
-362 -417 422 0
362 -422 0
417 -422 0
-376 -370 423 0
376 -423 0
370 -423 0
-420 -418 424 0
420 -424 0
418 -424 0
-421 -371 425 0
421 -425 0
371 -425 0
-422 -418 426 0
422 -426 0
418 -426 0
-423 -371 427 0
423 -427 0
371 -427 0
424 425 -428 0
-424 428 0
-425 428 0
426 428 -429 0
-426 429 0
-428 429 0
429 427 -419 0
-429 419 0
-427 419 0
77 -364 0
-77 364 0
78 -365 0
-78 365 0
79 -366 0
-79 366 0
80 -367 0
-80 367 0
81 -368 0
-81 368 0
82 -369 0
-82 369 0
83 -370 0
-83 370 0
84 -371 0
-84 371 0
-359 0
-360 0
361 0
362 0
363 0
-372 0
-373 0
c New ckt:
-430 -432 -448 0
430 448 0
432 448 0
-432 -433 -445 0
432 445 0
433 445 0
-431 -464 -447 0
431 447 0
464 447 0
-434 -464 -446 0
434 446 0
464 446 0
-451 -490 -443 0
451 443 0
490 443 0
-446 -446 -444 0
446 444 0
446 444 0
435 449 0
-435 -449 0
436 450 0
-436 -450 0
-430 -449 452 0
430 -452 0
449 -452 0
-448 -435 453 0
448 -453 0
435 -453 0
-433 -449 454 0
433 -454 0
449 -454 0
-448 -435 455 0
448 -455 0
435 -455 0
-452 -450 456 0
452 -456 0
450 -456 0
-453 -436 457 0
453 -457 0
436 -457 0
-454 -450 458 0
454 -458 0
450 -458 0
-455 -436 459 0
455 -459 0
436 -459 0
456 457 -460 0
-456 460 0
-457 460 0
458 460 -461 0
-458 461 0
-460 461 0
461 459 -451 0
-461 451 0
-459 451 0
437 462 0
-437 -462 0
438 463 0
-438 -463 0
-430 -462 465 0
430 -465 0
462 -465 0
-445 -437 466 0
445 -466 0
437 -466 0
-433 -462 467 0
433 -467 0
462 -467 0
-445 -437 468 0
445 -468 0
437 -468 0
-465 -463 469 0
465 -469 0
463 -469 0
-466 -438 470 0
466 -470 0
438 -470 0
-467 -463 471 0
467 -471 0
463 -471 0
-468 -438 472 0
468 -472 0
438 -472 0
469 470 -473 0
-469 473 0
-470 473 0
471 473 -474 0
-471 474 0
-473 474 0
474 472 -464 0
-474 464 0
-472 464 0
439 475 0
-439 -475 0
440 476 0
-440 -476 0
-430 -475 478 0
430 -478 0
475 -478 0
-445 -439 479 0
445 -479 0
439 -479 0
-433 -475 480 0
433 -480 0
475 -480 0
-445 -439 481 0
445 -481 0
439 -481 0
-478 -476 482 0
478 -482 0
476 -482 0
-479 -440 483 0
479 -483 0
440 -483 0
-480 -476 484 0
480 -484 0
476 -484 0
-481 -440 485 0
481 -485 0
440 -485 0
482 483 -486 0
-482 486 0
-483 486 0
484 486 -487 0
-484 487 0
-486 487 0
487 485 -477 0
-487 477 0
-485 477 0
441 488 0
-441 -488 0
442 489 0
-442 -489 0
-430 -488 491 0
430 -491 0
488 -491 0
-447 -441 492 0
447 -492 0
441 -492 0
-433 -488 493 0
433 -493 0
488 -493 0
-447 -441 494 0
447 -494 0
441 -494 0
-491 -489 495 0
491 -495 0
489 -495 0
-492 -442 496 0
492 -496 0
442 -496 0
-493 -489 497 0
493 -497 0
489 -497 0
-494 -442 498 0
494 -498 0
442 -498 0
495 496 -499 0
-495 499 0
-496 499 0
497 499 -500 0
-497 500 0
-499 500 0
500 498 -490 0
-500 490 0
-498 490 0
6 -435 0
-6 435 0
7 -436 0
-7 436 0
8 -437 0
-8 437 0
9 -438 0
-9 438 0
10 -439 0
-10 439 0
11 -440 0
-11 440 0
12 -441 0
-12 441 0
13 -442 0
-13 442 0
-430 0
-431 0
432 0
-433 0
-434 0
-443 0
-444 0
c New ckt:
-501 -503 -519 0
501 519 0
503 519 0
-503 -504 -516 0
503 516 0
504 516 0
-502 -535 -518 0
502 518 0
535 518 0
-505 -535 -517 0
505 517 0
535 517 0
-522 -561 -514 0
522 514 0
561 514 0
-517 -517 -515 0
517 515 0
517 515 0
506 520 0
-506 -520 0
507 521 0
-507 -521 0
-501 -520 523 0
501 -523 0
520 -523 0
-519 -506 524 0
519 -524 0
506 -524 0
-504 -520 525 0
504 -525 0
520 -525 0
-519 -506 526 0
519 -526 0
506 -526 0
-523 -521 527 0
523 -527 0
521 -527 0
-524 -507 528 0
524 -528 0
507 -528 0
-525 -521 529 0
525 -529 0
521 -529 0
-526 -507 530 0
526 -530 0
507 -530 0
527 528 -531 0
-527 531 0
-528 531 0
529 531 -532 0
-529 532 0
-531 532 0
532 530 -522 0
-532 522 0
-530 522 0
508 533 0
-508 -533 0
509 534 0
-509 -534 0
-501 -533 536 0
501 -536 0
533 -536 0
-516 -508 537 0
516 -537 0
508 -537 0
-504 -533 538 0
504 -538 0
533 -538 0
-516 -508 539 0
516 -539 0
508 -539 0
-536 -534 540 0
536 -540 0
534 -540 0
-537 -509 541 0
537 -541 0
509 -541 0
-538 -534 542 0
538 -542 0
534 -542 0
-539 -509 543 0
539 -543 0
509 -543 0
540 541 -544 0
-540 544 0
-541 544 0
542 544 -545 0
-542 545 0
-544 545 0
545 543 -535 0
-545 535 0
-543 535 0
510 546 0
-510 -546 0
511 547 0
-511 -547 0
-501 -546 549 0
501 -549 0
546 -549 0
-516 -510 550 0
516 -550 0
510 -550 0
-504 -546 551 0
504 -551 0
546 -551 0
-516 -510 552 0
516 -552 0
510 -552 0
-549 -547 553 0
549 -553 0
547 -553 0
-550 -511 554 0
550 -554 0
511 -554 0
-551 -547 555 0
551 -555 0
547 -555 0
-552 -511 556 0
552 -556 0
511 -556 0
553 554 -557 0
-553 557 0
-554 557 0
555 557 -558 0
-555 558 0
-557 558 0
558 556 -548 0
-558 548 0
-556 548 0
512 559 0
-512 -559 0
513 560 0
-513 -560 0
-501 -559 562 0
501 -562 0
559 -562 0
-518 -512 563 0
518 -563 0
512 -563 0
-504 -559 564 0
504 -564 0
559 -564 0
-518 -512 565 0
518 -565 0
512 -565 0
-562 -560 566 0
562 -566 0
560 -566 0
-563 -513 567 0
563 -567 0
513 -567 0
-564 -560 568 0
564 -568 0
560 -568 0
-565 -513 569 0
565 -569 0
513 -569 0
566 567 -570 0
-566 570 0
-567 570 0
568 570 -571 0
-568 571 0
-570 571 0
571 569 -561 0
-571 561 0
-569 561 0
77 -506 0
-77 506 0
78 -507 0
-78 507 0
79 -508 0
-79 508 0
80 -509 0
-80 509 0
81 -510 0
-81 510 0
82 -511 0
-82 511 0
83 -512 0
-83 512 0
84 -513 0
-84 513 0
-501 0
-502 0
503 0
-504 0
-505 0
-514 0
-515 0
